ssat_solver_solve2
#level: 2
Abc_NtkNodeNum(s->pNtk): 790  , BDD limit: 10240
level 1: 20 element
Exist
existence_eliminate_scope
Abc_NtkIsBddLogic(pNtk): 0
Abc_NtkIsStrash(pNtk): 1
existence_eliminate_scope_aig
exist by BDD failed
Abc_NtkNodeNum(s->pNtk): 31914320  , BDD limit: 38297184
Build BDD success
level 0: 20 element
Random
c ssat solving in ABC
#var: 40
s SATISFIABLE
  > Upper bound = 2.940083e-02
  > Lower bound = 2.940083e-02
FINISHED CPU 1699.05 MEM 0 MAXMEM 5906676 STALE 0 MAXMEM_RSS 5556948
<time name="ALL">1699100</time>
real 1699.32
user 1966.58
sys 750.04
